Solver command line: ['C:\\Python38\\Scripts\\cbc.exe', '-printingOptions', 'all', '-import', 'C:\\Users\\Juan\\AppData\\Local\\Temp\\tmpkx0lbb_2.pyomo.lp', '-stat=1', '-solve', '-solu', 'C:\\Users\\Juan\\AppData\\Local\\Temp\\tmpkx0lbb_2.pyomo.soln']

Welcome to the CBC MILP Solver 
Version: 2.10.3 
Build Date: Dec 15 2019 

command line - C:\Python38\Scripts\cbc.exe -printingOptions all -import C:\Users\Juan\AppData\Local\Temp\tmpkx0lbb_2.pyomo.lp -stat=1 -solve -solu C:\Users\Juan\AppData\Local\Temp\tmpkx0lbb_2.pyomo.soln (default strategy 1)
Option for printingOptions changed from normal to all
Presolve 139 (-217) rows, 156 (-97) columns and 425 (-401) elements
Statistics for presolved model
Original problem has 132 integers (132 of which binary)
Presolved problem has 48 integers (48 of which binary)
==== 24 zero objective 7 different
24 variables have objective of 0
12 variables have objective of 70000
24 variables have objective of 80530
24 variables have objective of 100000
24 variables have objective of 195241
24 variables have objective of 2e+06
24 variables have objective of 7.5e+07
==== absolute objective values 7 different
24 variables have objective of 0
12 variables have objective of 70000
24 variables have objective of 80530
24 variables have objective of 100000
24 variables have objective of 195241
24 variables have objective of 2e+06
24 variables have objective of 7.5e+07
==== for integers 24 zero objective 2 different
24 variables have objective of 0
24 variables have objective of 7.5e+07
==== for integers absolute objective values 2 different
24 variables have objective of 0
24 variables have objective of 7.5e+07
===== end objective counts


Problem has 139 rows, 156 columns (132 with objective) and 425 elements
There are 84 singletons with objective 
Column breakdown:
47 of type 0.0->inf, 61 of type 0.0->up, 0 of type lo->inf, 
0 of type lo->up, 0 of type free, 0 of type fixed, 
0 of type -inf->0.0, 0 of type -inf->up, 48 of type 0.0->1.0 
Row breakdown:
0 of type E 0.0, 0 of type E 1.0, 0 of type E -1.0, 
24 of type E other, 0 of type G 0.0, 0 of type G 1.0, 
0 of type G other, 69 of type L 0.0, 1 of type L 1.0, 
45 of type L other, 0 of type Range 0.0->1.0, 0 of type Range other, 
0 of type Free 
Continuous objective value is 4.29243e+09 - 0.00 seconds
Cgl0003I 3 fixed, 0 tightened bounds, 54 strengthened rows, 0 substitutions
Cgl0003I 0 fixed, 0 tightened bounds, 16 strengthened rows, 0 substitutions
Cgl0003I 0 fixed, 0 tightened bounds, 16 strengthened rows, 0 substitutions
Cgl0003I 0 fixed, 0 tightened bounds, 16 strengthened rows, 0 substitutions
Cgl0003I 0 fixed, 0 tightened bounds, 16 strengthened rows, 0 substitutions
Cgl0003I 0 fixed, 0 tightened bounds, 16 strengthened rows, 0 substitutions
Cgl0003I 0 fixed, 0 tightened bounds, 16 strengthened rows, 0 substitutions
Cgl0003I 0 fixed, 0 tightened bounds, 16 strengthened rows, 0 substitutions
Cgl0003I 0 fixed, 0 tightened bounds, 16 strengthened rows, 0 substitutions
Cgl0003I 0 fixed, 0 tightened bounds, 16 strengthened rows, 0 substitutions
Cgl0004I processed model has 119 rows, 153 columns (45 integer (45 of which binary)) and 526 elements
Cbc0038I Initial state - 4 integers unsatisfied sum - 0.88073
Cbc0038I Pass   1: suminf.    0.00000 (0) obj. 4.7922e+09 iterations 33
Cbc0038I Solution found of 4.7922e+09
Cbc0038I Relaxing continuous gives 4.7922e+09
Cbc0038I Before mini branch and bound, 41 integers at bound fixed and 68 continuous
Cbc0038I Full problem 119 rows 153 columns, reduced to 23 rows 18 columns
Cbc0038I Mini branch and bound improved solution from 4.7922e+09 to 4.31322e+09 (0.06 seconds)
Cbc0038I After 0.06 seconds - Feasibility pump exiting with objective of 4.31322e+09 - took 0.01 seconds
Cbc0012I Integer solution of 4.3132243e+09 found by feasibility pump after 0 iterations and 0 nodes (0.06 seconds)
Cbc0038I Full problem 119 rows 153 columns, reduced to 61 rows 103 columns
Cbc0001I Search completed - best objective 4313224264.836097, took 0 iterations and 0 nodes (0.08 seconds)
Cbc0035I Maximum depth 0, 12 variables fixed on reduced cost
Cuts at root node changed objective from 4.31322e+09 to 4.31322e+09
Probing was tried 0 times and created 0 cuts of which 0 were active after adding rounds of cuts (0.000 seconds)
Gomory was tried 0 times and created 0 cuts of which 0 were active after adding rounds of cuts (0.000 seconds)
Knapsack was tried 0 times and created 0 cuts of which 0 were active after adding rounds of cuts (0.000 seconds)
Clique was tried 0 times and created 0 cuts of which 0 were active after adding rounds of cuts (0.000 seconds)
MixedIntegerRounding2 was tried 0 times and created 0 cuts of which 0 were active after adding rounds of cuts (0.000 seconds)
FlowCover was tried 0 times and created 0 cuts of which 0 were active after adding rounds of cuts (0.000 seconds)
TwoMirCuts was tried 0 times and created 0 cuts of which 0 were active after adding rounds of cuts (0.000 seconds)
ZeroHalf was tried 0 times and created 0 cuts of which 0 were active after adding rounds of cuts (0.000 seconds)

Result - Optimal solution found

Objective value:                4313224264.83609676
Enumerated nodes:               0
Total iterations:               0
Time (CPU seconds):             0.09
Time (Wallclock seconds):       0.09

Total time (CPU seconds):       0.10   (Wallclock seconds):       0.10


